SCIP Status        : solving was interrupted [time limit reached]
Total Time         :    3600.01
  solving          :    3600.00
  presolving       :       0.01 (included in solving)
  reading          :       0.00
  copying          :       0.27 (96 #copies) (minimal 0.00, maximal 0.00, average 0.00)
Original Problem   :
  Problem name     : kport40
  Variables        : 267 (3 binary, 111 integer, 0 implicit integer, 153 continuous)
  Constraints      : 48 initial, 48 maximal
  Objective        : minimize, 2 non-zeros (abs.min = 1, abs.max = 1)
Presolved Problem  :
  Problem name     : t_kport40
  Variables        : 355 (16 binary, 72 integer, 9 implicit integer, 258 continuous)
  Constraints      : 44 initial, 50 maximal
  Objective        : minimize, 1 non-zeros (abs.min = 1, abs.max = 1)
  Nonzeros         : 408 constraint, 0 clique table
Presolvers         :   ExecTime  SetupTime  Calls  FixedVars   AggrVars   ChgTypes  ChgBounds   AddHoles    DelCons    AddCons   ChgSides   ChgCoefs
  boundshift       :       0.00       0.00      0          0          0          0          0          0          0          0          0          0
  convertinttobin  :       0.00       0.00      0          0          0          0          0          0          0          0          0          0
  domcol           :       0.00       0.00      2          0          0          0          0          0          0          0          0          0
  dualagg          :       0.00       0.00      0          0          0          0          0          0          0          0          0          0
  dualcomp         :       0.00       0.00      2          0          0          0          0          0          0          0          0          0
  dualinfer        :       0.00       0.00      0          0          0          0          0          0          0          0          0          0
  dualsparsify     :       0.00       0.00      2          0          0          0          0          0          0          0          0          0
  gateextraction   :       0.00       0.00      0          0          0          0          0          0          0          0          0          0
  implics          :       0.00       0.00      2          0          0          0          0          0          0          0          0          0
  inttobinary      :       0.00       0.00      4          0          9          9          0          0          0          0          0          0
  qpkktref         :       0.00       0.00      0          0          0          0          0          0          0          0          0          0
  redvub           :       0.00       0.00      0          0          0          0          0          0          0          0          0          0
  sparsify         :       0.00       0.00      1          0          0          0          0          0          0          0          0          0
  stuffing         :       0.00       0.00      0          0          0          0          0          0          0          0          0          0
  trivial          :       0.00       0.00      4         23          0          0          0          0          0          0          0          0
  tworowbnd        :       0.00       0.00      0          0          0          0          0          0          0          0          0          0
  dualfix          :       0.00       0.00      4         23          0          0          0          0          0          0          0          0
  genvbounds       :       0.00       0.00      0          0          0          0          0          0          0          0          0          0
  probing          :       0.00       0.00      1          0          0          0          0          0          0          0          0          0
  pseudoobj        :       0.00       0.00      0          0          0          0          0          0          0          0          0          0
  symmetry         :       0.00       0.00      1          0          0          0          0          0          0          3          0          0
  vbounds          :       0.00       0.00      0          0          0          0          0          0          0          0          0          0
  varbound         :       0.00       0.00      0          0          0          0          0          0          0          0          0          0
  linear           :       0.00       0.00      6          3          1          0         24          0          7          0          0          0
  orbitope         :       0.00       0.00      1          0          0          0          0          0          0          0          0          0
  bounddisjunction :       0.00       0.00      0          0          0          0          0          0          0          0          0          0
  nonlinear        :       0.01       0.00      8          0          0          0         11          0          0         -3          0          0
  benders          :       0.00       0.00      0          0          0          0          0          0          0          0          0          0
  components       :       0.00       0.00      1          0          0          0          0          0          0          0          0          0
  root node        :          -          -      -          0          -          -        155          -          -          -          -          -
Constraints        :     Number  MaxNumber  #Separate #Propagate    #EnfoLP    #EnfoRelax  #EnfoPS    #Check   #ResProp    Cutoffs    DomReds       Cuts    Applied      Conss   Children
  benderslp        :          0          0          0          0     153104          0          0      35852          0          0          0          0          0          0          0
  integral         :          0          0          0          0     153104          0          0      35852          0          0      10964          0          0          6     304894
  varbound         :          0+         1          0       3958          0          0          0          0          0          0          8          0          0          0          0
  linear           :          3+        23         36    1349034          0          0          0      35847        883      13012    1028466          0          0          0          0
  orbitope         :          3          3          0    1335969          0          0          0      21340         38         25       9802          0          0          0          0
  bounddisjunction :          0+        17          0      38600          0          0          0          0          0          1          1          0          0          0          0
  nonlinear        :         38         38     455680    1335997         53          0          0      21340          0      18810    2229750    1423572    1408492          0        104
  benders          :          0          0          0          0          1          0          0         14          0          0          0          0          0          0          0
  countsols        :          0          0          0          0          1          0          0         14          0          0          0          0          0          0          0
  components       :          0          0          0          0          0          0          0          0          0          0          0          0          0          0          0
Constraint Timings :  TotalTime  SetupTime   Separate  Propagate     EnfoLP     EnfoPS     EnfoRelax   Check    ResProp    SB-Prop
  benderslp        :       0.07       0.00       0.00       0.00       0.07       0.00       0.00       0.01       0.00       0.00
  integral         :      10.95       0.00       0.00       0.00      10.94       0.00       0.00       0.01       0.00       0.00
  varbound         :       0.00       0.00       0.00       0.00       0.00       0.00       0.00       0.00       0.00       0.00
  linear           :      99.69       0.00       0.00      98.67       0.00       0.00       0.00       0.13       0.00       0.89
  orbitope         :       2.32       0.00       0.00       2.31       0.00       0.00       0.00       0.01       0.00       0.00
  bounddisjunction :       0.06       0.00       0.00       0.06       0.00       0.00       0.00       0.00       0.00       0.00
  nonlinear        :    1652.86       0.00    1475.95     174.10       0.11       0.00       0.00       1.55       0.00       1.15
  benders          :       0.00       0.00       0.00       0.00       0.00       0.00       0.00       0.00       0.00       0.00
  countsols        :       0.00       0.00       0.00       0.00       0.00       0.00       0.00       0.00       0.00       0.00
  components       :       0.16       0.00       0.00       0.15       0.00       0.00       0.00       0.00       0.00       0.00
Propagators        : #Propagate   #ResProp    Cutoffs    DomReds
  dualfix          :         12          0          0          0
  genvbounds       :     162781          9        212     229654
  nlobbt           :          0          0          0          0
  obbt             :         10          0          0          0
  probing          :          0          0          0          0
  pseudoobj        :     609171          0          2        634
  redcost          :     755604          0          0     342200
  rootredcost      :         13          0          0          0
  symmetry         :          0          0          0          0
  vbounds          :      52290          0          0          0
Propagator Timings :  TotalTime  SetupTime   Presolve  Propagate    ResProp    SB-Prop
  dualfix          :       0.00       0.00       0.00       0.00       0.00       0.00
  genvbounds       :       9.09       0.00       0.00       9.08       0.00       0.00
  nlobbt           :       0.00       0.00       0.00       0.00       0.00       0.00
  obbt             :       0.09       0.00       0.00       0.09       0.00       0.00
  probing          :       0.00       0.00       0.00       0.00       0.00       0.00
  pseudoobj        :       0.55       0.00       0.00       0.55       0.00       0.00
  redcost          :      21.45       0.00       0.00      21.45       0.00       0.00
  rootredcost      :       0.33       0.00       0.00       0.33       0.00       0.00
  symmetry         :       0.15       0.00       0.00       0.15       0.00       0.00
  vbounds          :       0.42       0.00       0.00       0.41       0.00       0.00
Orbital fixing     :
  vars fixed to 0  :          0
  vars fixed to 1  :          0
Conflict Analysis  :       Time      Calls    Success    DomReds  Conflicts   Literals    Reconvs ReconvLits   Dualrays   Nonzeros   LP Iters   (pool size: [10000,10000])
  propagation      :       0.00        230          7          -          7       16.0          0        0.0          -          -          -
  infeasible LP    :       0.58       6602       5578          -       1149       19.4          0        0.0       5568       37.1          0
  bound exceed. LP :       2.04      27922       1359          -         12        9.0          0        0.0       1353       49.7       5456
  strong branching :       0.00          0          0          -          0        0.0          0        0.0          -          -          0
  pseudo solution  :       0.00          0          0          -          0        0.0          0        0.0          -          -          -
  applied globally :       0.00          -          -          2         23       11.5          -          -       1494          -          -
  applied locally  :          -          -          -          0        645       18.5          -          -       5427          -          -
Separators         :   ExecTime  SetupTime      Calls  RootCalls    Cutoffs    DomReds  FoundCuts ViaPoolAdd  DirectAdd    Applied ViaPoolApp  DirectApp      Conss
  cut pool         :       0.34          -      50551         80          -          -      10275      26816          -          -          -          -          -    (maximal pool size:        691)
  aggregation      :       4.29       0.00       6700         36          0          0       7570      19042         90       8834       8811         23          0
  > cmir           :          -          -          -          -          -          -          -      10503         69       3138       3124         14          -
  > flowcover      :          -          -          -          -          -          -          -       8539         21       5696       5687          9          -
  > knapsackcover  :          -          -          -          -          -          -          -          0          0          0          0          0          -
  cgmip            :       0.00       0.00          0          0          0          0          0          0          0          0          0          0          0
  clique           :       0.00       0.00          1          1          0          0          0          0          0          0          0          0          0
  closecuts        :       0.00       0.00          0          0          0          0          0          0          0          0          0          0          0
  convexproj       :       0.00       0.00          0          0          0          0          0          0          0          0          0          0          0
  disjunctive      :       0.00       0.00          0          0          0          0          0          0          0          0          0          0          0
  eccuts           :       0.00       0.00          0          0          0          0          0          0          0          0          0          0          0
  gauge            :       0.00       0.00          0          0          0          0          0          0          0          0          0          0          0
  gomory           :       2.17       0.00       6439         10          0          0       2869       7645        321        998        956         42          0
  > gomorymi       :          -          -          -          -          -          -          -       7630        320        983        941         42          -
  > strongcg       :          -          -          -          -          -          -          -         15          1         15         15          0          -
  impliedbounds    :       0.07       0.00       6700         36          0          0        247        129          0         44         44          0          0
  interminor       :       0.00       0.00          0          0          0          0          0          0          0          0          0          0          0
  intobj           :       0.00       0.00          0          0          0          0          0          0          0          0          0          0          0
  mcf              :       0.00       0.00          1          1          0          0          0          0          0          0          0          0          0
  minor            :       0.01       0.00          0          0          0          0          0          0          0          0          0          0          0
  mixing           :       0.06       0.00       6703         36          0          0          0          0          0          0          0          0          0
  oddcycle         :       0.00       0.00          0          0          0          0          0          0          0          0          0          0          0
  rapidlearning    :       0.01       0.00          0          0          0          0          0          0          0          0          0          0          0
  rlt              :       0.00       0.00         10         10          0          0          0          0          0          0          0          0          0
  zerohalf         :       0.49       0.00       6449         20          0          0          2          0          2          0          0          0          0
Cutselectors       :   ExecTime  SetupTime      Calls  RootCalls   Selected     Forced   Filtered  RootSelec   RootForc   RootFilt 
  hybrid           :       1.40       0.00     359415         43    1419672         67      31127        319          0        306
Pricers            :   ExecTime  SetupTime      Calls       Vars
  problem variables:       0.00          -          0          0
Branching Rules    :   ExecTime  SetupTime   BranchLP  BranchExt   BranchPS    Cutoffs    DomReds       Cuts      Conss   Children
  allfullstrong    :       0.00       0.00          0          0          0          0          0          0          0          0
  cloud            :       0.00       0.00          0          0          0          0          0          0          0          0
  distribution     :       0.00       0.00          0          0          0          0          0          0          0          0
  fullstrong       :       0.00       0.00          0          0          0          0          0          0          0          0
  inference        :       0.00       0.00          0          0          0          0          0          0          0          0
  leastinf         :       0.00       0.00          0          0          0          0          0          0          0          0
  lookahead        :       0.00       0.00          0          0          0          0          0          0          0          0
  mostinf          :       0.00       0.00          0          0          0          0          0          0          0          0
  multaggr         :       0.00       0.00          0          0          0          0          0          0          0          0
  nodereopt        :       0.00       0.00          0          0          0          0          0          0          0          0
  pscost           :       0.00       0.00          0          0          0          0          0          0          0          0
  random           :       0.00       0.00          0          0          0          0          0          0          0          0
  relpscost        :      10.78       0.00     153051          0          0          0      10964          0          6     304894
  vanillafullstrong:       0.00       0.00          0          0          0          0          0          0          0          0
Primal Heuristics  :   ExecTime  SetupTime      Calls      Found       Best
  LP solutions     :       0.06          -          -          1          1
  relax solutions  :       0.00          -          -          0          0
  pseudo solutions :       0.00          -          -          0          0
  strong branching :       0.01          -          -          0          0
  actconsdiving    :       0.00       0.00          0          0          0
  adaptivediving   :       1.37       0.00         86          0          0
  alns             :       3.09       0.00         29          5          5
  bound            :       0.00       0.00          0          0          0
  clique           :       0.00       0.00          0          0          0
  coefdiving       :       0.00       0.00          0          0          0
  completesol      :       0.00       0.00          0          0          0
  conflictdiving   :      38.72       0.00       3224          0          0
  crossover        :      19.34       0.00         28          5          5
  dins             :       0.00       0.00          0          0          0
  distributiondivin:    1163.68       0.00       3224          0          0
  dps              :       0.00       0.00          0          0          0
  dualval          :       0.00       0.00          0          0          0
  farkasdiving     :       0.01       0.00          0          0          0
  feaspump         :       5.93       0.00        992          0          0
  fixandinfer      :       0.00       0.00          0          0          0
  fracdiving       :      56.46       0.00       3225          0          0
  gins             :       0.07       0.00          0          0          0
  guideddiving     :      53.93       0.00       3225          0          0
  indicator        :       0.19       0.00          0          0          0
  indicatordiving  :       0.00       0.00          0          0          0
  intdiving        :       0.00       0.00          0          0          0
  intshifting      :       0.10       0.00        171          0          0
  linesearchdiving :      55.30       0.00       3224          0          0
  localbranching   :       0.00       0.00          0          0          0
  locks            :       0.02       0.00          1          0          0
  lpface           :       0.08       0.00          0          0          0
  mpec             :       0.00       0.00          0          0          0
  multistart       :       0.00       0.00          0          0          0
  mutation         :       0.00       0.00          0          0          0
  nlpdiving        :       0.39       0.00          5          0          0
  objpscostdiving  :       2.98       0.00        186          0          0
  octane           :       0.00       0.00          0          0          0
  ofins            :       0.06       0.00          0          0          0
  oneopt           :       0.07       0.00         13          0          0
  padm             :       0.00       0.00          0          0          0
  proximity        :       0.00       0.00          0          0          0
  pscostdiving     :      66.91       0.00       3224          0          0
  randrounding     :       1.35       0.00      24808          0          0
  rens             :       0.06       0.00          1          1          1
  reoptsols        :       0.00       0.00          0          0          0
  repair           :       0.00       0.00          0          0          0
  rins             :       1.63       0.00         38          2          2
  rootsoldiving    :       3.46       0.00        382          0          0
  rounding         :       0.39       0.00      10014          0          0
  shiftandpropagate:       0.01       0.00          1          0          0
  shifting         :       0.48       0.00       3205          0          0
  simplerounding   :       0.22       0.00          0          0          0
  subnlp           :       0.49       0.00         74          0          0
  trivial          :       0.00       0.00          2          0          0
  trivialnegation  :       0.00       0.00          0          0          0
  trustregion      :       0.00       0.00          0          0          0
  trysol           :       0.12       0.00          0          0          0
  twoopt           :       0.00       0.00          0          0          0
  undercover       :       0.01       0.00          1          0          0
  vbounds          :       0.00       0.00          0          0          0
  veclendiving     :      39.13       0.00       3225          0          0
  zeroobj          :       0.00       0.00          0          0          0
  zirounding       :       0.09       0.00       1000          0          0
  other solutions  :          -          -          -          0          -
Expressions        :   #IntEval  IntEvalTi   #RevProp  RevPropTi    DomReds    Cutoffs  #Estimate  EstimTime  Branching  #Simplify SimplifyTi Simplified
  pow              :    1208268       0.47     130593       0.10     129312          0    1253170       0.49        111          9       0.00          0
  prod             :   44599307       9.54   26282244      16.63    3487082        868   17592278    1368.97       1281        407       0.00        183
  sum              :   18969667       6.46   16587150       8.99    3250889        446         47       0.00          0        221       0.00        104
  val              :          0       0.00          0       0.00          0          0          0       0.00          0          0       0.00          0
  var              :   21397136       0.94          0       0.00          0          0          0       0.00          0        841       0.00         32
  varidx           :          0       0.00          0       0.00          0          0          0       0.00          0          0       0.00          0
Nlhdlrs            :    Detects  DetectAll DetectTime   #IntEval  IntEvalTi   #RevProp  RevPropTi    DomReds    Cutoffs   #Enforce   EnfoTime       Cuts  Branching
  soc              :          0          0       0.00          0       0.00          0       0.00          0          0          0       0.00          0          0
  convex           :          0          0       0.00          0       0.00          0       0.00          0          0          0       0.00          0          0
  concave          :          0          0       0.00          0       0.00          0       0.00          0          0          0       0.00          0          0
  signomial        :          0          0       0.00          0       0.00          0       0.00          0          0          0       0.00          0          0
  quotient         :          0          0       0.00          0       0.00          0       0.00          0          0          0       0.00          0          0
  quadratic        :          0          0       0.00          0       0.00          0       0.00          0          0          0       0.00          0          0
  default          :        355       3186       0.00   64777945      20.06   43000855      93.82    6867283       1439   18845404    1400.22    1423572          0
  bilinear         :          0          0       0.00          0       0.00          0       0.00          0          0          0       0.00          0          0
  perspective      :          0          0       0.00          0       0.00          0       0.00          0          0          0       0.00          0          0
LP                 :       Time      Calls Iterations  Iter/call   Iter/sec  Time-0-It Calls-0-It    ItLimit
  primal LP        :      56.89      80393          3       3.00       0.05      56.88      80392
  dual LP          :     260.42     599394    5795628      11.06   22255.02      10.13      75342
  lex dual LP      :       0.00          0          0       0.00          -
  barrier LP       :       0.00          0          0       0.00          -       0.00          0
  resolve instable :       0.00          0          0       0.00          -
  diving/probing LP:      64.95     130854    1867066      14.27   28745.26
  strong branching :       1.30       1974      24577      12.45   18889.30          -          -        150
    (at root node) :          -         33        501      15.18          -
  conflict analysis:       0.12        308       5456      17.71   45184.64
NLP relaxation     :
  solve time       :       0.37 (9 calls)
  convexity        :  nonconvex (3 linear rows, 0 convex ineq., 0 nonconvex ineq., 38 nonlinear eq. or two-sided ineq.)
NLP Solvers        :  #Problems  ProblemTi    #Solves  SolveTime      #Iter  Time/Iter      #Okay #TimeLimit #IterLimit #LObjLimit #Interrupt  #NumError #EvalError  #OutOfMem #LicenseEr #OtherTerm   #GlobOpt    #LocOpt  #Feasible #LocInfeas #GlobInfea #Unbounded   #Unknown
  ipopt            :          1       2.92          9       0.37        240       0.00          7          0          2          0          0          0          0          0          0          0          0          3          0          0          0          0          6
B&B Tree           :
  number of runs   :          1
  nodes            :     163655 (152499 internal, 11156 leaves)
  feasible leaves  :          1
  infeas. leaves   :       2075
  objective leaves :       9079
  nodes (total)    :     163655 (152499 internal, 11156 leaves)
  nodes left       :     140088
  max depth        :         54
  max depth (total):         54
  backtracks       :      29391 (18.0%)
  early backtracks :          0 (0.0%)
  nodes exc. ref.  :          0 (0.0%)
  delayed cutoffs  :          0
  repropagations   :          9 (29 domain reductions, 0 cutoffs)
  avg switch length:       5.51
  switching time   :     120.54
Root Node          :
  First LP value   : +3.10032121054326e+01
  First LP Iters   :         17 (13798.70 Iter/sec)
  First LP Time    :       0.00
  Final Dual Bound : +3.17350751965023e+01
  Final Root Iters :        622
  Root LP Estimate : +3.55379866675270e+01
Solution           :
  Solutions found  :         14 (14 improvements)
  First Solution   : +4.20652497584956e+01   (in run 1, after 1 nodes, 0.45 seconds, depth 0, found by <rens>)
  Gap First Sol.   :      32.56 %
  Gap Last Sol.    :      19.42 %
  Primal Bound     : +3.90245376313061e+01   (in run 1, after 126365 nodes, 2480.71 seconds, depth 21, found by <crossover>)
  Dual Bound       : +3.27246465325493e+01
  Gap              :      19.25 %
Integrals          :      Total       Avg%
  primal-dual      :   63935.04      17.76
  primal-ref       :          -          - (not evaluated)
  dual-ref         :          -          - (not evaluated)
